decision_x1=[0,4];
decision_x2=[0,4];
decision_x3=[0,4];
decision_x4=[0,4];
decision_x5=[0,4];
decision_x6=[0,4];
decision_x7=[0,4];
decision_x8=[0,4];
random_y1=[0,4];
random_y2=[0,4];
random_y3=[0,4];
random_y4=[0,4];
constraint_x3_x1=[
0,1,6.1|
0,2,2.7|
0,3,1.7|
0,4,2.6|
1,0,9|
1,2,2.2|
1,3,4.9|
1,4,0.16|
2,0,6.2|
2,1,3.6|
2,3,5.9|
2,4,9.1|
3,0,6|
3,1,3.5|
3,2,8.4|
3,4,8.8|
4,0,5.5|
4,1,3|
4,2,0.1|
4,3,9.4|
];
constraint_x3_x2=[
0,1,7.1|
0,2,0.23|
0,3,7.8|
0,4,5.4|
1,0,0.31|
1,2,9.8|
1,3,10|
1,4,4|
2,0,5.3|
2,1,8.9|
2,3,8.1|
2,4,1.8|
3,0,3.1|
3,1,9.5|
3,2,7.2|
3,4,3.7|
4,0,1.8|
4,1,2.9|
4,2,9.9|
4,3,1.8|
];
constraint_x4_x1=[
0,1,9.3|
0,2,8.6|
0,3,2.2|
0,4,0.32|
1,0,1|
1,2,2.5|
1,3,1.2|
1,4,7.5|
2,0,0.62|
2,1,3.5|
2,3,5.5|
2,4,2|
3,0,1.3|
3,1,9.7|
3,2,1.4|
3,4,9.5|
4,0,1.8|
4,1,0.1|
4,2,2.3|
4,3,5.3|
];
constraint_x4_x3=[
0,1,0.94|
0,2,8|
0,3,2.2|
0,4,8.5|
1,0,5.6|
1,2,8.3|
1,3,8.1|
1,4,5.6|
2,0,9.2|
2,1,7|
2,3,4.1|
2,4,1.6|
3,0,5.1|
3,1,4.8|
3,2,3.5|
3,4,0.66|
4,0,6.4|
4,1,4.4|
4,2,1.3|
4,3,1.9|
];
constraint_x5_x2=[
0,1,7.9|
0,2,3.9|
0,3,9.9|
0,4,7.6|
1,0,9.4|
1,2,7|
1,3,7.2|
1,4,4.9|
2,0,9.5|
2,1,5.3|
2,3,4.1|
2,4,0.94|
3,0,5|
3,1,4.7|
3,2,1.8|
3,4,8.5|
4,0,2.5|
4,1,0.41|
4,2,1.1|
4,3,6.8|
];
constraint_x6_x1=[
0,1,1.2|
0,2,4.8|
0,3,8.1|
0,4,4.6|
1,0,2.8|
1,2,6.3|
1,3,1.3|
1,4,4.1|
2,0,4.7|
2,1,3.2|
2,3,8|
2,4,2.4|
3,0,9|
3,1,8.7|
3,2,1.6|
3,4,8.4|
4,0,9.1|
4,1,3.7|
4,2,8.6|
4,3,10|
];
constraint_x6_x2=[
0,1,5.7|
0,2,2.5|
0,3,5.2|
0,4,1.5|
1,0,5.7|
1,2,2.5|
1,3,8.8|
1,4,4|
2,0,7.4|
2,1,5|
2,3,5.1|
2,4,7.6|
3,0,0.07|
3,1,5.7|
3,2,3.8|
3,4,8.6|
4,0,6.8|
4,1,2.7|
4,2,7.7|
4,3,7.5|
];
constraint_x6_x5=[
0,1,1.2|
0,2,4.2|
0,3,1.7|
0,4,5.7|
1,0,7.4|
1,2,7.4|
1,3,3.8|
1,4,6.9|
2,0,8.6|
2,1,4.1|
2,3,0.011|
2,4,8.4|
3,0,7.8|
3,1,6.3|
3,2,4.7|
3,4,5.7|
4,0,7.4|
4,1,4.8|
4,2,4|
4,3,0.11|
];
constraint_x7_x5=[
0,1,8|
0,2,1.8|
0,3,10|
0,4,6.2|
1,0,8.9|
1,2,9.1|
1,3,10|
1,4,1.3|
2,0,1|
2,1,8.7|
2,3,2.4|
2,4,7.8|
3,0,2.1|
3,1,8.1|
3,2,8.4|
3,4,7.6|
4,0,3.6|
4,1,8.9|
4,2,8.5|
4,3,3.7|
];
constraint_x8_x2=[
0,1,2.5|
0,2,7.8|
0,3,0.27|
0,4,1|
1,0,8.3|
1,2,3.5|
1,3,1.4|
1,4,1.4|
2,0,3.8|
2,1,2.5|
2,3,8.5|
2,4,8.9|
3,0,8.3|
3,1,4|
3,2,5.4|
3,4,5.7|
4,0,4.4|
4,1,7.3|
4,2,9.1|
4,3,8.5|
];
constraint_x8_x3=[
0,1,4.4|
0,2,6.4|
0,3,5.4|
0,4,6|
1,0,5.2|
1,2,6.5|
1,3,6.3|
1,4,8.5|
2,0,4.2|
2,1,7.1|
2,3,9.4|
2,4,0.24|
3,0,4.9|
3,1,7.3|
3,2,5.7|
3,4,5.8|
4,0,0.93|
4,1,3.7|
4,2,5.6|
4,3,1.8|
];
constraint_x8_x4=[
0,1,4.9|
0,2,2.3|
0,3,3.5|
0,4,7.7|
1,0,2.4|
1,2,4.9|
1,3,2.8|
1,4,3.7|
2,0,4.2|
2,1,6.4|
2,3,5.2|
2,4,9.5|
3,0,8.1|
3,1,5|
3,2,2|
3,4,9.7|
4,0,5.5|
4,1,5.5|
4,2,5.7|
4,3,1.7|
];
constraint_x8_x5=[
0,1,8.9|
0,2,3.3|
0,3,6.7|
0,4,6.1|
1,0,2.3|
1,2,1.3|
1,3,6.7|
1,4,9.3|
2,0,3.3|
2,1,6.1|
2,3,7|
2,4,0.12|
3,0,0.24|
3,1,2.1|
3,2,7.1|
3,4,4.1|
4,0,1.6|
4,1,6|
4,2,3.1|
4,3,5|
];
constraint_x8_x6=[
0,1,6.7|
0,2,4|
0,3,0.35|
0,4,4.8|
1,0,2.1|
1,2,4.8|
1,3,0.69|
1,4,9.2|
2,0,1|
2,1,8.9|
2,3,0.79|
2,4,0.48|
3,0,2|
3,1,2.7|
3,2,0.43|
3,4,2.6|
4,0,6.2|
4,1,5.6|
4,2,4.2|
4,3,0.65|
];
constraint_x1_y1=[
0,0,8.4|
0,1,7.2|
0,2,3.6|
0,3,2.5|
0,4,2|
1,0,9.8|
1,1,9.3|
1,2,4.3|
1,3,0.81|
1,4,3.9|
2,0,7.6|
2,1,6.3|
2,2,6.8|
2,3,2.2|
2,4,9.5|
3,0,8.1|
3,1,2.1|
3,2,0.02|
3,3,2.7|
3,4,8.2|
4,0,3.5|
4,1,0.48|
4,2,3.8|
4,3,7.9|
4,4,5.1|
];
constraint_x2_y2=[
0,0,9.4|
0,1,2.3|
0,2,5.7|
0,3,8.4|
0,4,7.9|
1,0,0.61|
1,1,7.5|
1,2,7.6|
1,3,7.5|
1,4,8.1|
2,0,9.8|
2,1,8.1|
2,2,2.7|
2,3,1.3|
2,4,6.3|
3,0,9.9|
3,1,5|
3,2,7.2|
3,3,4.6|
3,4,0.58|
4,0,7.6|
4,1,7.8|
4,2,7.5|
4,3,8.4|
4,4,8.9|
];
constraint_x3_y3=[
0,0,0.59|
0,1,1.6|
0,2,8.9|
0,3,2.6|
0,4,7.5|
1,0,5.1|
1,1,2.8|
1,2,0.39|
1,3,7.4|
1,4,4.7|
2,0,4|
2,1,3.2|
2,2,5.9|
2,3,9.1|
2,4,2.6|
3,0,1.5|
3,1,2.1|
3,2,6.6|
3,3,2.3|
3,4,2.9|
4,0,9.7|
4,1,1.6|
4,2,1.9|
4,3,1.2|
4,4,0.62|
];
constraint_x4_y4=[
0,0,5|
0,1,9.4|
0,2,3.5|
0,3,9.7|
0,4,6.9|
1,0,9.6|
1,1,8.1|
1,2,3.4|
1,3,4.1|
1,4,1.5|
2,0,1.6|
2,1,1.1|
2,2,8.4|
2,3,1|
2,4,3.6|
3,0,0.25|
3,1,1.7|
3,2,4.1|
3,3,9.7|
3,4,0.94|
4,0,6.9|
4,1,3.5|
4,2,5.7|
4,3,7.1|
4,4,3.6|
];
initial_distribution_y1=[0.16,0.19,0.083,0.11,0.46];
initial_distribution_y2=[0.28,0.19,0.24,0.25,0.043];
initial_distribution_y3=[0.22,0.36,0.37,0.011,0.036];
initial_distribution_y4=[0.18,0.32,0.22,0.23,0.039];
transition_y1=[
0.28,0.18,0.29,0.067,0.18|
0.19,0.25,0.26,0.038,0.26|
0.015,0.13,0.33,0.28,0.24|
0.3,0.24,0.35,0.012,0.1|
0.16,0.37,0.21,0.097,0.16|
];
transition_y2=[
0.071,0.29,0.42,0.078,0.14|
0.22,0.19,0.2,0.12,0.27|
0.16,0.17,0.27,0.26,0.14|
0.32,0.32,0.014,0.32,0.033|
0.36,0.37,0.07,0.034,0.17|
];
transition_y3=[
0.15,0.16,0.27,0.38,0.04|
0.25,0.16,0.21,0.31,0.067|
0.21,0.013,0.39,0.23,0.16|
0.13,0.29,0.22,0.055,0.3|
0.075,0.28,0.25,0.16,0.23|
];
transition_y4=[
0.15,0.35,0.053,0.12,0.33|
0.28,0.14,0.2,0.099,0.28|
0.084,0.2,0.14,0.087,0.49|
0.31,0.18,0.08,0.3,0.13|
0.14,0.1,0.32,0.051,0.38|
];
